200
750
524
522
522
521
521
515
511
508
504
500
499
498
497
497
493
491
491
487
483
481
479
479
478
478
478
477
473
467
467
465
464
462
460
458
458
458
457
457
456
455
454
453
451
451
438
436
436
435
434
433
430
429
427
427
426
424
424
423
423
422
421
417
415
412
412
407
404
403
399
399
396
396
395
392
392
386
385
384
383
383
381
380
379
378
378
376
374
374
369
366
366
363
357
357
356
355
353
345
345
338
338
336
336
328
326
324
323
322
322
321
321
313
312
312
311
308
304
301
297
297
296
293
292
290
289
288
287
286
278
276
273
270
270
269
269
268
266
265
257
257
254
253
252
251
250
250
249
249
248
246
243
243
237
230
229
228
226
226
225
224
222
221
218
214
214
214
214
213
212
206
200
200
200
199
198
195
195
193
190
187
184
181
180
179
177
176
176
175
172
169
167
166
162
160
158
156
155
154
154
153
